(set-logic QF_SLIA)
(declare-fun var0 () String)
(assert (not (str.in_re var0 (re.++ ((_ re.loop 14 503) (re.++ (re.union (str.to_re "w") (re.union (str.to_re "G(|") (re.union (str.to_re "k%:") (str.to_re "C<=")))) (re.++ (re.union (str.to_re "R=7") (re.union (str.to_re ";%") (re.union (str.to_re ".%") (str.to_re "-r%")))) (re.++ (re.union (str.to_re "4f") (re.union (str.to_re "i") (re.union (str.to_re "E") (str.to_re "PH@")))) (re.union (str.to_re "o[") (re.union (str.to_re "ONW") (re.union (str.to_re "pc=") (str.to_re "-")))))))) (re.++ ((_ re.loop 7 939) (re.++ (re.union (str.to_re "EZ") (re.union (str.to_re "=7=") (re.union (str.to_re "H7") (str.to_re "j]H")))) (re.++ (re.union (str.to_re "w") (re.union (str.to_re "I") (re.union (str.to_re "EoF") (str.to_re "Z-J")))) (re.++ (re.union (str.to_re "rC") (re.union (str.to_re "tTl") (re.union (str.to_re "4{") (str.to_re "o8R")))) (re.union (str.to_re "0}F") (re.union (str.to_re "*Is") (re.union (str.to_re "7H)") (str.to_re "XB")))))))) (re.++ ((_ re.loop 16 729) (re.++ (re.union (str.to_re "|:") (re.union (str.to_re "-Kt") (re.union (str.to_re ";H") (str.to_re "{T")))) (re.++ (re.union (str.to_re "yg") (re.union (str.to_re "Hb{") (re.union (str.to_re "b#F") (str.to_re "7-")))) (re.++ (re.union (str.to_re "3I") (re.union (str.to_re "e") (re.union (str.to_re "sXC") (str.to_re "%fU")))) (re.union (str.to_re "M") (re.union (str.to_re "Vih") (re.union (str.to_re "*.") (str.to_re "J")))))))) ((_ re.loop 17 780) (re.++ (re.union (str.to_re "7M:") (re.union (str.to_re "LhC") (re.union (str.to_re "%") (str.to_re "q")))) (re.++ (re.union (str.to_re "I") (re.union (str.to_re "r(") (re.union (str.to_re "me'") (str.to_re "oKQ")))) (re.++ (re.union (str.to_re "fb") (re.union (str.to_re "/B") (re.union (str.to_re "Hb") (str.to_re "$")))) (re.union (str.to_re "=P") (re.union (str.to_re "2") (re.union (str.to_re "5!9") (str.to_re "E"))))))))))))))
(assert (not (str.in_re var0 (re.++ ((_ re.loop 3 398) (re.++ (re.union (str.to_re "5") (re.union (str.to_re "ky") (re.union (str.to_re "qgs") (str.to_re "W)")))) (re.++ (re.union (str.to_re "p") (re.union (str.to_re "C") (re.union (str.to_re "LD") (str.to_re "M")))) (re.++ (re.union (str.to_re "|R") (re.union (str.to_re "U") (re.union (str.to_re "(") (str.to_re "bJ")))) (re.union (str.to_re "}iA") (re.union (str.to_re "dSO") (re.union (str.to_re "3v") (str.to_re "'")))))))) (re.++ ((_ re.loop 9 575) (re.++ (re.union (str.to_re "_!T") (re.union (str.to_re "#J") (re.union (str.to_re "A`k") (str.to_re "){")))) (re.++ (re.union (str.to_re "i!H") (re.union (str.to_re "GU") (re.union (str.to_re "MC;") (str.to_re "eB")))) (re.++ (re.union (str.to_re "o") (re.union (str.to_re "R0C") (re.union (str.to_re "}#/") (str.to_re "Kr")))) (re.union (str.to_re "UDn") (re.union (str.to_re "?\\") (re.union (str.to_re "L") (str.to_re "0h")))))))) (re.++ ((_ re.loop 18 803) (re.++ (re.union (str.to_re "l9E") (re.union (str.to_re "D.") (re.union (str.to_re "z#J") (str.to_re "=Nr")))) (re.++ (re.union (str.to_re "\u0022;") (re.union (str.to_re "(R") (re.union (str.to_re "q") (str.to_re "E;")))) (re.++ (re.union (str.to_re "{") (re.union (str.to_re ";") (re.union (str.to_re "IG$") (str.to_re "Rm")))) (re.union (str.to_re "5}") (re.union (str.to_re "}a") (re.union (str.to_re "!") (str.to_re "g")))))))) ((_ re.loop 5 590) (re.++ (re.union (str.to_re "zze") (re.union (str.to_re ".") (re.union (str.to_re ",H;") (str.to_re "yr")))) (re.++ (re.union (str.to_re "h") (re.union (str.to_re "y$}") (re.union (str.to_re ":7r") (str.to_re "\u00222")))) (re.++ (re.union (str.to_re "b") (re.union (str.to_re "*GV") (re.union (str.to_re "T") (str.to_re "?/>")))) (re.union (str.to_re "q^]") (re.union (str.to_re "=") (re.union (str.to_re "?") (str.to_re "G"))))))))))))))
(assert (not (str.in_re var0 (re.++ (re.* re.allchar) (re.++ (re.union (str.to_re "<") (re.union (str.to_re ">") (re.union (str.to_re "'") (re.union (str.to_re "\u0022") (str.to_re "&"))))) (re.* re.allchar))))))
(assert (<= 50 (str.len var0)))
(check-sat)
(get-model)
